NAME: instance_1537
TYPE: TSP
DIMENSION: 20
EDGE_WEIGHT_TYPE: EUC_2D
NODE_COORD_SECTION
0 30.20 16.81
1 13.75 75.34
2 15.94 67.56
3 59.73 84.77
4 50.26 47.88
5 95.17 91.39
6 58.94 8.75
7 20.63 26.47
8 4.28 60.66
9 6.19 45.08
10 72.93 89.66
11 43.87 68.51
12 59.98 35.59
13 16.10 56.17
14 74.82 52.39
15 97.05 68.89
16 34.18 27.87
17 61.91 33.33
18 9.02 26.33
19 90.28 50.67
EOF
